num_offers = 30;
num_halls = 10;
start=[9,12,36,29,3,19,44,78,50,28,10,39,29,16,13,31,5,57,46,38,11,26,4,49,2,58,51,70,16,7];
end=[43,29,37,78,58,67,61,88,89,74,68,93,100,89,34,38,91,78,100,77,71,57,72,72,91,85,83,71,51,33];
price=[3353,914,120,569,1417,761,983,471,1135,1894,3876,4498,3383,3415,1202,125,2265,963,4585,3376,2785,1214,5824,1632,2033,1535,1875,49,1989,402];
requirement=[932,351,757,269,375,899,612,374,808,223,728,753,261,425,619,259,729,207,236,783,267,534,209,488,668,587,830,361,622,824];
capacity=[640,887,905,775,282,457,316,634,890,727];
